10
1 0 103
2 0 18
2 1 88
3 0 43
3 1 17
3 2 160
4 3 131
5 0 110
5 1 35
5 2 158
5 4 18
6 0 8
6 1 93
6 3 155
6 4 59
6 5 80
7 0 29
7 1 24
7 2 66
7 3 28
7 4 150
7 5 29
7 6 121
8 0 11
8 1 74
8 2 34
8 3 96
8 4 10
8 5 23
8 6 27
8 7 47
9 0 64
9 1 144
9 2 94
9 3 112
9 4 91
9 5 73
9 6 115
9 7 144
9 8 134
